Copyright (C) 2013-2015, Filipe Brandao
Build (method = -2)
  #dp: 21366
  Step-3' Graph: 289 vertices and 7973 arcs (0.03s)
  Step-4' Graph: 221 vertices and 7837 arcs (0.04s)
  #V4/#V3 = 0.76
  #A4/#A3 = 0.98
Ready! (0.04s)
Optimize a model with 430 rows, 7838 columns and 23076 nonzeros
Presolve removed 111 rows and 125 columns
Presolve time: 0.04s
Presolved: 319 rows, 7713 columns, 22046 nonzeros
Variable types: 0 continuous, 7713 integer (4993 binary)
Found heuristic solution: objective 218.0000000
Optimize a model with 319 rows, 7713 columns and 22046 nonzeros
Presolved: 319 rows, 7713 columns, 22046 nonzeros

Root barrier log...

Ordering time: 0.00s

Barrier statistics:
 AA' NZ     : 1.117e+04
 Factor NZ  : 2.534e+04 (roughly 3 MBytes of memory)
 Factor Ops : 2.838e+06 (less than 1 second per iteration)
 Threads    : 1

                  Objective                Residual
Iter       Primal          Dual         Primal    Dual     Compl     Time
   0   1.04835856e+04 -6.03073325e+04  1.47e+05 1.95e-01  4.10e+01     0s
   1   2.29111462e+03 -1.11820345e+04  1.71e+04 1.22e-15  4.99e+00     0s
   2   5.90407345e+02 -3.35398834e+03  1.60e+03 1.39e-15  6.08e-01     0s
   3   3.13664779e+02 -5.57671836e+02  1.37e+02 1.28e-15  8.04e-02     0s
   4   2.11556343e+02 -1.69872123e+02  2.78e+01 1.19e-15  2.89e-02     0s
   5   1.89983319e+02 -1.80713613e+00  1.30e+01 1.15e-15  1.40e-02     0s
   6   1.81390608e+02  4.43083063e+01  7.38e+00 1.26e-15  9.66e-03     0s
   7   1.76844837e+02  7.78095792e+01  5.99e+00 1.26e-15  6.99e-03     0s
   8   1.59589483e+02  1.14990779e+02  1.74e+00 1.10e-15  3.04e-03     0s
   9   1.54121610e+02  1.49598573e+02  2.53e-01 9.65e-16  3.14e-04     0s
  10   1.53071617e+02  1.52820565e+02  1.08e-02 9.99e-16  1.73e-05     0s
  11   1.53000607e+02  1.52999852e+02  4.34e-05 1.21e-15  5.32e-08     0s
  12   1.53000000e+02  1.53000000e+02  2.11e-10 1.33e-15  5.50e-14     0s

Barrier solved model in 12 iterations and 0.05 seconds
Optimal objective 1.53000000e+02


Root relaxation: objective 1.530000e+02, 3587 iterations, 0.07 seconds

    Nodes    |    Current Node    |     Objective Bounds      |     Work
 Expl Unexpl |  Obj  Depth IntInf | Incumbent    BestBd   Gap | It/Node Time

*    0     0               0     153.0000000  153.00000  0.00%     -    0s

Explored 0 nodes (3587 simplex iterations) in 0.17 seconds
Thread count was 1 (of 4 available processors)

Optimal solution found (tolerance 0.00e+00)
Best objective 1.530000000000e+02, best bound 1.530000000000e+02, gap 0.0%
Preprocessing time: 0.05 seconds
Gurobi run time: 0.17 seconds
Total run time: 0.22 seconds
Objective: 153
Solution:
1 x [i=1, i=209]
1 x [i=2, i=205]
1 x [i=3, i=206]
1 x [i=4, i=202]
3 x [i=5, i=207]
1 x [i=6, i=200]
1 x [i=7, i=199]
2 x [i=8, i=204]
1 x [i=9, i=197]
2 x [i=10, i=208]
1 x [i=11, i=193]
1 x [i=12, i=194]
1 x [i=13, i=191]
1 x [i=14, i=188]
2 x [i=15, i=192]
1 x [i=16, i=186]
1 x [i=17, i=187]
2 x [i=17, i=190]
2 x [i=18, i=184]
2 x [i=19, i=195]
1 x [i=20, i=183]
1 x [i=20, i=189]
1 x [i=21, i=182]
1 x [i=22, i=181]
1 x [i=22, i=196]
1 x [i=23, i=198]
1 x [i=24, i=180]
1 x [i=25, i=177]
5 x [i=26]
2 x [i=27, i=176]
1 x [i=28, i=175]
1 x [i=29, i=174]
1 x [i=29, i=178]
1 x [i=30, i=179]
1 x [i=31, i=172]
1 x [i=31, i=201]
2 x [i=32, i=169]
1 x [i=33, i=170]
1 x [i=33, i=171]
1 x [i=34, i=168]
1 x [i=35, i=167]
1 x [i=36, i=168]
1 x [i=37, i=203]
1 x [i=38, i=207]
2 x [i=39, i=166]
1 x [i=40, i=165]
1 x [i=41, i=163]
1 x [i=42, i=164]
1 x [i=43, i=165]
1 x [i=44, i=161]
1 x [i=45, i=158]
1 x [i=46, i=159]
1 x [i=47, i=156]
2 x [i=48, i=161]
1 x [i=49, i=153]
1 x [i=50, i=155]
2 x [i=51, i=149]
3 x [i=52, i=157]
1 x [i=53, i=146]
2 x [i=54, i=145]
2 x [i=55, i=150]
1 x [i=56, i=148]
1 x [i=57, i=162]
1 x [i=58, i=143]
1 x [i=59, i=162]
2 x [i=60, i=151]
1 x [i=61, i=142]
1 x [i=62, i=162]
1 x [i=63, i=138]
1 x [i=64, i=140]
1 x [i=65, i=136]
2 x [i=66, i=135]
1 x [i=67, i=132]
1 x [i=68, i=133]
1 x [i=69, i=164]
1 x [i=70, i=136]
2 x [i=71, i=129]
1 x [i=71, i=130]
1 x [i=72, i=144]
1 x [i=73, i=149]
1 x [i=74, i=127]
2 x [i=75, i=137]
1 x [i=76, i=124]
1 x [i=77, i=148]
1 x [i=78, i=147]
2 x [i=78, i=152]
1 x [i=79, i=124]
1 x [i=80, i=185]
1 x [i=81, i=138]
2 x [i=82, i=121]
1 x [i=83, i=121]
1 x [i=84, i=128]
1 x [i=85, i=127]
1 x [i=86, i=134]
1 x [i=87, i=126]
1 x [i=87, i=160]
1 x [i=88, i=173]
1 x [i=89, i=118]
1 x [i=89, i=123]
1 x [i=89, i=154]
1 x [i=90, i=131]
1 x [i=91, i=119]
2 x [i=91, i=139]
1 x [i=92, i=120]
1 x [i=93, i=163]
1 x [i=94, i=125]
1 x [i=95, i=141]
2 x [i=96, i=119]
1 x [i=97, i=117]
1 x [i=97, i=122]
1 x [i=98, i=116]
1 x [i=99, i=115]
1 x [i=100, i=114]
2 x [i=101, i=113]
1 x [i=102, i=110]
1 x [i=102, i=112]
1 x [i=103, i=111]
1 x [i=104, i=109]
1 x [i=105]
1 x [i=105, i=115]
1 x [i=106, i=108]
1 x [i=106, i=125]
1 x [i=107, i=108]
